145 85 184 126 194 24 56 88 134 30 104 110 17 133 199 124 59 63 54 94 158 148 62 146 49 64 91 128 156 0 164 23 102 83 175 108 8 77 51 190 90 191 168 31 55 101 187 165 40 76 112 182 18 166 111 7 139 107 78 20 57 28 19 58 29 27 162 84 140 15 98 198 161 185 25 80 26 120 189 12 119 93 115 151 44 60 99 109 11 67 177 69 97 118 3 68 143 95 121 4 43 153 157 21 181 33 127 79 48 1 86 50 45 130 14 74 37 100 131 117 180 96 137 154 183 129 149 9 169 71 176 142 5 46 82 186 195 35 38 73 144 193 42 72 172 196 52 32 61 2 188 53 13 192 81 22 136 75 197 34 170 125 123 147 6 174 39 114 138 152 171 65 132 159 103 141 10 92 105 173 163 178 160 87 179 122 106 41 113 135 116 89 167 47 66 70 36 150 155 16 

